p edge 26 46
e 1 3
e 1 6
e 1 8
e 1 9
e 1 15
e 1 23
e 2 12
e 2 21
e 2 24
e 3 4
e 3 12
e 3 22
e 4 7
e 4 8
e 4 10
e 4 12
e 4 17
e 4 19
e 5 6
e 5 24
e 6 9
e 6 19
e 6 24
e 7 10
e 7 14
e 7 15
e 8 15
e 8 16
e 8 19
e 9 23
e 10 16
e 10 17
e 10 20
e 11 12
e 11 13
e 12 18
e 13 16
e 13 22
e 14 15
e 16 17
e 16 19
e 16 20
e 17 20
e 17 25
e 18 25
e 20 26
